(declare-const |phi_y__VERIFIER_LA_old_tmp0:10| Int)
(declare-const |phi___VERIFIER_LA_iterations0:13| Int)
(declare-const |phi_x__VERIFIER_LA_old_tmp0:11| Int)
(declare-const |phi_y:15| Int)
(declare-const |phi_x:16| Int)
(declare-const |phi_y__VERIFIER_LA_tmp0:14| Int)
(assert (and (= (- |phi_x:16|) 0) (= (+ (- |phi_y:15|) 1024) 0)
               (= (- |phi_y__VERIFIER_LA_tmp0:14|) 0)
               (= (+ (- |phi___VERIFIER_LA_iterations0:13|) 1024) 0)
               (= (+ (- |phi_x__VERIFIER_LA_old_tmp0:11|) 1) 0)
               (= (- |phi_y__VERIFIER_LA_old_tmp0:10|) 0)
               (not (= (+ |phi_x:16| -1) 0))))
(check-sat)
